NAME 
ROWS
 N  OBJ
 L  R0      
 L  R1      
 E  R2      
 E  R3      
 E  R4      
 E  R5      
 E  R6      
 E  R7      
 E  R8      
 E  R9      
 E  R10     
 E  R11     
 E  R12     
 E  R13     
 E  R14     
 E  R15     
 E  R16     
 E  R17     
 E  R18     
 E  R19     
 E  R20     
 E  R21     
COLUMNS
    MARKER    'MARKER'                 'INTORG'
    I0(10)    OBJ       -65
    I0(10)    R0        -190
    I0(10)    R1        110
    I0(10)    R2        3
    I0(10)    R3        13
    I0(10)    R4        6
    I0(10)    R5        -1
    I0(10)    R6        6
    I0(10)    R7        4
    I0(10)    R9        8
    I0(10)    R21       1
    I1(9)     OBJ       -73
    I1(9)     R0        91
    I1(9)     R1        163
    I1(9)     R2        9
    I1(9)     R4        17
    I1(9)     R5        10
    I1(9)     R7        4
    I1(9)     R8        14
    I1(9)     R9        7
    I1(9)     R21       1
    I2(9)     OBJ       171
    I2(9)     R0        93
    I2(9)     R1        186
    I2(9)     R3        19
    I2(9)     R5        18
    I2(9)     R6        4
    I2(9)     R7        15
    I2(9)     R8        -1
    I2(9)     R9        5
    I2(9)     R21       1
    I3(8)     OBJ       -44
    I3(8)     R0        -120
    I3(8)     R1        165
    I3(8)     R4        14
    I3(8)     R5        10
    I3(8)     R6        9
    I3(8)     R7        2
    I3(8)     R8        12
    I3(8)     R21       1
    I4(10)    OBJ       -153
    I4(10)    R0        89
    I4(10)    R1        172
    I4(10)    R2        9
    I4(10)    R3        7
    I4(10)    R4        17
    I4(10)    R5        18
    I4(10)    R6        3
    I4(10)    R7        3
    I4(10)    R8        13
    I4(10)    R21       1
    I5(8)     OBJ       69
    I5(8)     R0        -147
    I5(8)     R1        -196
    I5(8)     R2        7
    I5(8)     R5        14
    I5(8)     R7        -1
    I5(8)     R8        13
    I5(8)     R9        13
    I5(8)     R21       1
    I6(9)     OBJ       55
    I6(9)     R0        -57
    I6(9)     R1        124
    I6(9)     R3        10
    I6(9)     R4        12
    I6(9)     R5        4
    I6(9)     R6        12
    I6(9)     R7        -1
    I6(9)     R9        13
    I6(9)     R21       1
    I7(9)     OBJ       -108
    I7(9)     R0        44
    I7(9)     R1        -196
    I7(9)     R2        4
    I7(9)     R3        16
    I7(9)     R4        15
    I7(9)     R5        2
    I7(9)     R7        12
    I7(9)     R9        1
    I7(9)     R21       1
    MARKER    'MARKER'                 'INTEND'
    C8(18)    OBJ       -9
    C8(18)    R0        4
    C8(18)    R1        5
    C8(18)    R2        1
    C8(18)    R3        11
    C8(18)    R4        15
    C8(18)    R5        2
    C8(18)    R6        14
    C8(18)    R7        17
    C8(18)    R8        17
    C8(18)    R10       17
    C8(18)    R11       11
    C8(18)    R12       11
    C8(18)    R13       18
    C8(18)    R14       19
    C8(18)    R17       16
    C8(18)    R18       -1
    C8(18)    R19       3
    C8(18)    R20       -1
    C9(14)    OBJ       4
    C9(14)    R0        -8
    C9(14)    R1        -10
    C9(14)    R2        15
    C9(14)    R4        8
    C9(14)    R7        11
    C9(14)    R8        10
    C9(14)    R11       16
    C9(14)    R12       4
    C9(14)    R14       7
    C9(14)    R15       3
    C9(14)    R17       14
    C9(14)    R18       15
    C9(14)    R19       14
    C9(14)    R20       6
    C10(17)   OBJ       -7
    C10(17)   R0        5
    C10(17)   R1        -1
    C10(17)   R2        -1
    C10(17)   R3        9
    C10(17)   R5        13
    C10(17)   R6        5
    C10(17)   R7        10
    C10(17)   R8        8
    C10(17)   R9        11
    C10(17)   R11       4
    C10(17)   R12       13
    C10(17)   R13       5
    C10(17)   R15       11
    C10(17)   R16       13
    C10(17)   R17       8
    C10(17)   R19       5
    C10(17)   R20       10
    C11(15)   OBJ       -10
    C11(15)   R0        -8
    C11(15)   R1        4
    C11(15)   R4        15
    C11(15)   R6        1
    C11(15)   R7        10
    C11(15)   R8        1
    C11(15)   R10       17
    C11(15)   R11       3
    C11(15)   R12       8
    C11(15)   R14       7
    C11(15)   R15       4
    C11(15)   R16       7
    C11(15)   R17       -1
    C11(15)   R18       11
    C11(15)   R19       8
    C12(18)   OBJ       -2
    C12(18)   R0        -10
    C12(18)   R1        -10
    C12(18)   R2        -1
    C12(18)   R3        2
    C12(18)   R4        3
    C12(18)   R6        12
    C12(18)   R7        10
    C12(18)   R8        9
    C12(18)   R9        6
    C12(18)   R11       1
    C12(18)   R12       11
    C12(18)   R13       16
    C12(18)   R14       16
    C12(18)   R15       2
    C12(18)   R17       12
    C12(18)   R18       13
    C12(18)   R19       14
    C12(18)   R20       18
    C13(17)   OBJ       -6
    C13(17)   R0        7
    C13(17)   R1        4
    C13(17)   R2        19
    C13(17)   R3        17
    C13(17)   R5        2
    C13(17)   R6        11
    C13(17)   R7        15
    C13(17)   R8        1
    C13(17)   R9        17
    C13(17)   R10       18
    C13(17)   R11       19
    C13(17)   R12       17
    C13(17)   R13       3
    C13(17)   R15       10
    C13(17)   R16       5
    C13(17)   R19       2
    C13(17)   R20       19
    C14(19)   OBJ       -7
    C14(19)   R0        -10
    C14(19)   R1        5
    C14(19)   R2        19
    C14(19)   R3        2
    C14(19)   R4        9
    C14(19)   R5        16
    C14(19)   R6        9
    C14(19)   R7        11
    C14(19)   R8        16
    C14(19)   R9        13
    C14(19)   R10       6
    C14(19)   R12       15
    C14(19)   R13       16
    C14(19)   R14       6
    C14(19)   R15       12
    C14(19)   R16       4
    C14(19)   R18       1
    C14(19)   R19       14
    C14(19)   R20       18
    C15(19)   OBJ       -5
    C15(19)   R0        4
    C15(19)   R1        -2
    C15(19)   R2        3
    C15(19)   R3        4
    C15(19)   R4        16
    C15(19)   R5        15
    C15(19)   R6        9
    C15(19)   R8        10
    C15(19)   R9        10
    C15(19)   R10       11
    C15(19)   R11       13
    C15(19)   R12       18
    C15(19)   R13       15
    C15(19)   R15       2
    C15(19)   R16       13
    C15(19)   R17       12
    C15(19)   R18       19
    C15(19)   R19       10
    C15(19)   R20       13
    C16(16)   OBJ       3
    C16(16)   R0        -8
    C16(16)   R1        3
    C16(16)   R2        5
    C16(16)   R3        10
    C16(16)   R5        11
    C16(16)   R6        2
    C16(16)   R8        6
    C16(16)   R9        4
    C16(16)   R10       2
    C16(16)   R11       3
    C16(16)   R13       5
    C16(16)   R14       2
    C16(16)   R16       13
    C16(16)   R18       9
    C16(16)   R19       3
    C16(16)   R20       8
    C17(19)   OBJ       -3
    C17(19)   R0        -1
    C17(19)   R1        -1
    C17(19)   R2        18
    C17(19)   R4        13
    C17(19)   R5        16
    C17(19)   R6        5
    C17(19)   R7        19
    C17(19)   R8        18
    C17(19)   R9        -1
    C17(19)   R10       11
    C17(19)   R11       18
    C17(19)   R12       18
    C17(19)   R13       6
    C17(19)   R14       4
    C17(19)   R15       12
    C17(19)   R16       13
    C17(19)   R17       1
    C17(19)   R18       8
    C17(19)   R19       14
    C18(18)   OBJ       -8
    C18(18)   R0        -4
    C18(18)   R1        -8
    C18(18)   R3        8
    C18(18)   R5        9
    C18(18)   R6        11
    C18(18)   R7        14
    C18(18)   R8        2
    C18(18)   R9        13
    C18(18)   R10       2
    C18(18)   R11       12
    C18(18)   R13       5
    C18(18)   R14       7
    C18(18)   R15       18
    C18(18)   R16       6
    C18(18)   R17       13
    C18(18)   R18       5
    C18(18)   R19       16
    C18(18)   R20       7
    C19(18)   OBJ       -1
    C19(18)   R0        -7
    C19(18)   R1        -4
    C19(18)   R2        9
    C19(18)   R3        9
    C19(18)   R4        4
    C19(18)   R5        4
    C19(18)   R6        9
    C19(18)   R7        11
    C19(18)   R8        13
    C19(18)   R9        5
    C19(18)   R10       -1
    C19(18)   R11       -1
    C19(18)   R12       7
    C19(18)   R13       1
    C19(18)   R14       7
    C19(18)   R18       11
    C19(18)   R19       14
    C19(18)   R20       9
    C20(1)    R2        1
    C21(1)    R3        1
    C22(1)    R4        1
    C23(1)    R5        1
    C24(1)    R6        1
    C25(1)    R7        1
    C26(1)    R8        1
    C27(1)    R9        1
    C28(1)    R10       1
    C29(1)    R11       1
    C30(1)    R12       1
    C31(1)    R13       1
    C32(1)    R14       1
    C33(1)    R15       1
    C34(1)    R16       1
    C35(1)    R17       1
    C36(1)    R18       1
    C37(1)    R19       1
    C38(1)    R20       1
    C39(1)    R21       1
RHS
    RHS1      R0        1.4118260869565225e+02
    RHS1      R1        -2.3330434782608616e+01
    RHS1      R2        95
    RHS1      R3        56
    RHS1      R4        50
    RHS1      R5        92
    RHS1      R6        57
    RHS1      R7        64
    RHS1      R8        81
    RHS1      R9        80
    RHS1      R10       75
    RHS1      R11       86
    RHS1      R12       62
    RHS1      R13       51
    RHS1      R14       85
    RHS1      R15       92
    RHS1      R16       81
    RHS1      R17       97
    RHS1      R18       57
    RHS1      R19       84
    RHS1      R20       66
    RHS1      R21       2
BOUNDS
 UP BND1      I0(10)    1
 UP BND1      I1(9)     1
 UP BND1      I2(9)     1
 UP BND1      I3(8)     1
 UP BND1      I4(10)    1
 UP BND1      I5(8)     1
 UP BND1      I6(9)     1
 UP BND1      I7(9)     1
ENDATA
